words_hard_train/3835.qaiger
aag 85 13 0 1 72
2
4
8
12
16
22
26
32
86
88
92
96
100
170
6 3 5
10 6 9
14 11 12
18 15 17
20 19 12
24 21 23
28 24 27
30 29 12
34 30 32
36 31 33
38 35 37
40 25 12
42 40 26
44 41 27
46 43 45
48 20 22
50 49 25
52 14 16
54 53 19
56 7 12
58 56 8
60 57 9
62 59 61
64 4 12
66 65 2
68 5 13
70 66 69
72 62 70
74 54 72
76 50 74
78 46 76
80 38 78
82 36 12
84 81 83
90 87 89
94 90 93
98 94 97
102 99 100
104 98 101
106 103 105
108 107 79
110 47 77
112 109 111
114 113 105
116 114 39
118 84 117
120 110 107
122 121 83
124 122 79
126 55 73
128 127 75
130 91 92
132 131 95
134 73 91
136 63 88
138 70 87
140 136 139
142 134 141
144 133 143
146 128 145
148 142 93
150 147 149
152 51 75
154 153 77
156 95 96
158 157 99
160 154 158
162 150 161
164 155 159
166 163 165
168 124 166
170 119 169
i0 2 y2[0]
i1 2 y2[1]
i2 2 y2[2]
i3 2 y2[7]
i4 2 y2[3]
i5 2 y2[4]
i6 2 y2[5]
i7 2 y2[6]
i8 1 x1[0]
i9 1 x1[2]
i10 1 x1[3]
i11 1 x1[4]
i12 1 x1[5]
o0 bv[0]
c
simplified
  <
    add
      1
      abs
        2 y2
    and
      1 x1
      -195
