words_hard_train/3835.qaiger.qdimacs
p cnf 85 217
a 43 44 46 48 50 0
e 1 2 3 4 5 6 7 8 9 10 11 12 13 14 15 16 17 18 19 20 21 22 23 24 25 26 27 28 29 30 31 32 33 34 35 36 37 38 39 40 41 42 45 47 49 51 52 53 54 55 56 57 58 59 60 61 62 63 64 65 66 67 68 69 70 71 72 73 74 75 76 77 78 79 80 81 82 83 84 85 0
1 2 3 0
-1 -3 0
-2 -3 0
-3 4 5 0
3 -5 0
-4 -5 0
5 -6 7 0
-5 -7 0
6 -7 0
7 8 9 0
-7 -9 0
-8 -9 0
9 -6 10 0
-9 -10 0
6 -10 0
10 11 12 0
-10 -12 0
-11 -12 0
-12 13 14 0
12 -14 0
-13 -14 0
14 -6 15 0
-14 -15 0
6 -15 0
-15 -16 17 0
15 -17 0
16 -17 0
15 16 18 0
-15 -18 0
-16 -18 0
17 18 19 0
-17 -19 0
-18 -19 0
12 -6 20 0
-12 -20 0
6 -20 0
-20 -13 21 0
20 -21 0
13 -21 0
20 13 22 0
-20 -22 0
-13 -22 0
21 22 23 0
-21 -23 0
-22 -23 0
-10 -11 24 0
10 -24 0
11 -24 0
24 12 25 0
-24 -25 0
-12 -25 0
-7 -8 26 0
7 -26 0
8 -26 0
26 9 27 0
-26 -27 0
-9 -27 0
3 -6 28 0
-3 -28 0
6 -28 0
-28 -4 29 0
28 -29 0
4 -29 0
28 4 30 0
-28 -30 0
-4 -30 0
29 30 31 0
-29 -31 0
-30 -31 0
-2 -6 32 0
2 -32 0
6 -32 0
32 -1 33 0
-32 -33 0
1 -33 0
2 6 34 0
-2 -34 0
-6 -34 0
-33 34 35 0
33 -35 0
-34 -35 0
-31 -35 36 0
31 -36 0
35 -36 0
-27 -36 37 0
27 -37 0
36 -37 0
-25 -37 38 0
25 -38 0
37 -38 0
-23 -38 39 0
23 -39 0
38 -39 0
-19 -39 40 0
19 -40 0
39 -40 0
-18 -6 41 0
18 -41 0
6 -41 0
40 41 42 0
-40 -42 0
-41 -42 0
43 44 45 0
-43 -45 0
-44 -45 0
-45 46 47 0
45 -47 0
-46 -47 0
-47 48 49 0
47 -49 0
-48 -49 0
49 -50 51 0
-49 -51 0
50 -51 0
-49 50 52 0
49 -52 0
-50 -52 0
51 52 53 0
-51 -53 0
-52 -53 0
53 39 54 0
-53 -54 0
-39 -54 0
23 38 55 0
-23 -55 0
-38 -55 0
54 55 56 0
-54 -56 0
-55 -56 0
56 52 57 0
-56 -57 0
-52 -57 0
-57 19 58 0
57 -58 0
-19 -58 0
-42 58 59 0
42 -59 0
-58 -59 0
-55 53 60 0
55 -60 0
-53 -60 0
60 41 61 0
-60 -61 0
-41 -61 0
-61 39 62 0
61 -62 0
-39 -62 0
27 36 63 0
-27 -63 0
-36 -63 0
63 37 64 0
-63 -64 0
-37 -64 0
45 -46 65 0
-45 -65 0
46 -65 0
65 47 66 0
-65 -66 0
-47 -66 0
36 45 67 0
-36 -67 0
-45 -67 0
31 -44 68 0
-31 -68 0
44 -68 0
-35 43 69 0
35 -69 0
-43 -69 0
-68 69 70 0
68 -70 0
-69 -70 0
-67 70 71 0
67 -71 0
-70 -71 0
66 71 72 0
-66 -72 0
-71 -72 0
-64 72 73 0
64 -73 0
-72 -73 0
-71 46 74 0
71 -74 0
-46 -74 0
73 74 75 0
-73 -75 0
-74 -75 0
25 37 76 0
-25 -76 0
-37 -76 0
76 38 77 0
-76 -77 0
-38 -77 0
47 -48 78 0
-47 -78 0
48 -78 0
78 49 79 0
-78 -79 0
-49 -79 0
-77 -79 80 0
77 -80 0
79 -80 0
-75 80 81 0
75 -81 0
-80 -81 0
77 79 82 0
-77 -82 0
-79 -82 0
81 82 83 0
-81 -83 0
-82 -83 0
-62 -83 84 0
62 -84 0
83 -84 0
59 84 85 0
-59 -85 0
-84 -85 0
85 0
